c This is a CNF SAT formula in the DIMACS CNF format,
c produced with the bc2cnf translator by Tommi Junttila;
c see http://users.ics.aalto.fi/tjunttil/circuits/index.html
c Z <-> 2
c KSUM31 <-> 3
c L5G30 <-> 4
c L4P30 <-> 6
c L4G30 <-> 7
c L4G29 <-> 9
c L3P30 <-> 11
c L3P29 <-> 12
c L3G30 <-> 13
c L3G29 <-> 15
c L3G28 <-> 17
c L2P30 <-> 19
c L2P29 <-> 20
c L2P28 <-> 21
c L2G30 <-> 22
c L2G29 <-> 24
c L2G28 <-> 26
c L2G27 <-> 28
c L1P30 <-> 30
c L1P29 <-> 31
c L1P28 <-> 32
c L1P27 <-> 33
c L1G30 <-> 34
c L1G29 <-> 36
c L1G28 <-> 38
c L1G27 <-> 40
c L1G26 <-> 42
c L0P31 <-> 44
c L0P30 <-> 45
c L0P29 <-> 46
c L0P28 <-> 47
c L0P27 <-> 48
c L0P26 <-> 49
c S31 <-> 50
c A31 <-> 51
c C31 <-> 52
c L0G30 <-> 55
c A30 <-> 56
c C30 <-> 57
c L0G29 <-> 60
c A29 <-> 61
c C29 <-> 62
c L0G28 <-> 65
c A28 <-> 66
c C28 <-> 67
c L0G27 <-> 70
c A27 <-> 71
c C27 <-> 72
c L0G26 <-> 75
c A26 <-> 76
c C26 <-> 77
c L0G25 <-> 80
c A25 <-> 81
c C25 <-> 82
c L0G24 <-> 85
c A24 <-> 86
c C24 <-> 87
c L0G23 <-> 90
c A23 <-> 91
c C23 <-> 92
c L0G22 <-> 95
c A22 <-> 96
c C22 <-> 97
c L0G21 <-> 100
c A21 <-> 101
c C21 <-> 102
c L0G20 <-> 105
c A20 <-> 106
c C20 <-> 107
c L0G19 <-> 110
c A19 <-> 111
c C19 <-> 112
c L0G18 <-> 115
c A18 <-> 116
c C18 <-> 117
c L0G17 <-> 120
c A17 <-> 121
c C17 <-> 122
c L0G16 <-> 125
c A16 <-> 126
c C16 <-> 127
c L0G15 <-> 130
c A15 <-> 131
c C15 <-> 132
c L0G14 <-> 135
c A14 <-> 136
c C14 <-> 137
c L0G13 <-> 140
c A13 <-> 141
c C13 <-> 142
c L0G12 <-> 145
c A12 <-> 146
c C12 <-> 147
c L0G11 <-> 150
c A11 <-> 151
c C11 <-> 152
c L0G10 <-> 155
c A10 <-> 156
c C10 <-> 157
c L0G9 <-> 160
c A9 <-> 161
c C9 <-> 162
c L0G8 <-> 165
c A8 <-> 166
c C8 <-> 167
c L0G7 <-> 170
c A7 <-> 171
c C7 <-> 172
c L0G6 <-> 175
c A6 <-> 176
c C6 <-> 177
c L0G5 <-> 180
c A5 <-> 181
c C5 <-> 182
c L0G4 <-> 185
c A4 <-> 186
c C4 <-> 187
c L0G3 <-> 190
c A3 <-> 191
c C3 <-> 192
c L0G2 <-> 195
c A2 <-> 196
c C2 <-> 197
c L0G1 <-> 200
c A1 <-> 201
c C1 <-> 202
c kek0 <-> 205
c A0 <-> 206
c B31 <-> 207
c Bin31 <-> 208
c B30 <-> 209
c Bin30 <-> 210
c B29 <-> 211
c Bin29 <-> 212
c B28 <-> 213
c Bin28 <-> 214
c B27 <-> 215
c Bin27 <-> 216
c B26 <-> 217
c Bin26 <-> 218
c B25 <-> 219
c Bin25 <-> 220
c B24 <-> 221
c Bin24 <-> 222
c B23 <-> 223
c Bin23 <-> 224
c B22 <-> 225
c Bin22 <-> 226
c B21 <-> 227
c Bin21 <-> 228
c B20 <-> 229
c Bin20 <-> 230
c B19 <-> 231
c Bin19 <-> 232
c B18 <-> 233
c Bin18 <-> 234
c B17 <-> 235
c Bin17 <-> 236
c B16 <-> 237
c Bin16 <-> 238
c B15 <-> 239
c Bin15 <-> 240
c B14 <-> 241
c Bin14 <-> 242
c B13 <-> 243
c Bin13 <-> 244
c B12 <-> 245
c Bin12 <-> 246
c B11 <-> 247
c Bin11 <-> 248
c B10 <-> 249
c Bin10 <-> 250
c B9 <-> 251
c Bin9 <-> 252
c B8 <-> 253
c Bin8 <-> 254
c B7 <-> 255
c Bin7 <-> 256
c B6 <-> 257
c Bin6 <-> 258
c B5 <-> 259
c Bin5 <-> 260
c B4 <-> 261
c Bin4 <-> 262
c B3 <-> 263
c Bin3 <-> 264
c B2 <-> 265
c Bin2 <-> 266
c B1 <-> 267
c Bin1 <-> 268
c B0 <-> 269
c C0 <-> 270
c OP0 <-> 270
c Bin0 <-> 271
p cnf 271 692
1 52 -51 0
1 -52 51 0
-1 52 51 0
-1 -52 -51 0
2 50 -3 0
2 -50 3 0
-2 50 3 0
-2 -50 -3 0
2 0
3 44 -4 0
3 -44 4 0
-3 44 4 0
-3 -44 -4 0
4 -5 0
4 -7 0
-4 7 5 0
-5 6 0
-5 9 0
5 -9 -6 0
-6 11 0
-6 12 0
6 -12 -11 0
7 -8 0
7 -13 0
-7 13 8 0
-8 11 0
-8 15 0
8 -15 -11 0
9 -10 0
9 -15 0
-9 15 10 0
-10 12 0
-10 17 0
10 -17 -12 0
-11 19 0
-11 20 0
11 -20 -19 0
-12 20 0
-12 21 0
12 -21 -20 0
13 -14 0
13 -22 0
-13 22 14 0
-14 19 0
-14 24 0
14 -24 -19 0
15 -16 0
15 -24 0
-15 24 16 0
-16 20 0
-16 26 0
16 -26 -20 0
17 -18 0
17 -26 0
-17 26 18 0
-18 21 0
-18 28 0
18 -28 -21 0
-19 30 0
-19 31 0
19 -31 -30 0
-20 31 0
-20 32 0
20 -32 -31 0
-21 32 0
-21 33 0
21 -33 -32 0
22 -23 0
22 -34 0
-22 34 23 0
-23 30 0
-23 36 0
23 -36 -30 0
24 -25 0
24 -36 0
-24 36 25 0
-25 31 0
-25 38 0
25 -38 -31 0
26 -27 0
26 -38 0
-26 38 27 0
-27 32 0
-27 40 0
27 -40 -32 0
28 -29 0
28 -40 0
-28 40 29 0
-29 33 0
-29 42 0
29 -42 -33 0
-30 45 0
-30 46 0
30 -46 -45 0
-31 46 0
-31 47 0
31 -47 -46 0
-32 47 0
-32 48 0
32 -48 -47 0
-33 48 0
-33 49 0
33 -49 -48 0
34 -35 0
34 -55 0
-34 55 35 0
-35 45 0
-35 60 0
35 -60 -45 0
36 -37 0
36 -60 0
-36 60 37 0
-37 46 0
-37 65 0
37 -65 -46 0
38 -39 0
38 -65 0
-38 65 39 0
-39 47 0
-39 70 0
39 -70 -47 0
40 -41 0
40 -70 0
-40 70 41 0
-41 48 0
-41 75 0
41 -75 -48 0
42 -43 0
42 -75 0
-42 75 43 0
-43 49 0
-43 80 0
43 -80 -49 0
44 207 -51 0
44 -207 51 0
-44 207 51 0
-44 -207 -51 0
45 209 -56 0
45 -209 56 0
-45 209 56 0
-45 -209 -56 0
46 211 -61 0
46 -211 61 0
-46 211 61 0
-46 -211 -61 0
47 213 -66 0
47 -213 66 0
-47 213 66 0
-47 -213 -66 0
48 215 -71 0
48 -215 71 0
-48 215 71 0
-48 -215 -71 0
49 217 -76 0
49 -217 76 0
-49 217 76 0
-49 -217 -76 0
50 207 -1 0
50 -207 1 0
-50 207 1 0
-50 -207 -1 0
52 -53 0
52 -54 0
52 -55 0
-52 55 54 53 0
-53 57 0
-53 209 0
53 -209 -57 0
-54 56 0
-54 57 0
54 -57 -56 0
-55 56 0
-55 209 0
55 -209 -56 0
57 -58 0
57 -59 0
57 -60 0
-57 60 59 58 0
-58 62 0
-58 211 0
58 -211 -62 0
-59 61 0
-59 62 0
59 -62 -61 0
-60 61 0
-60 211 0
60 -211 -61 0
62 -63 0
62 -64 0
62 -65 0
-62 65 64 63 0
-63 67 0
-63 213 0
63 -213 -67 0
-64 66 0
-64 67 0
64 -67 -66 0
-65 66 0
-65 213 0
65 -213 -66 0
67 -68 0
67 -69 0
67 -70 0
-67 70 69 68 0
-68 72 0
-68 215 0
68 -215 -72 0
-69 71 0
-69 72 0
69 -72 -71 0
-70 71 0
-70 215 0
70 -215 -71 0
72 -73 0
72 -74 0
72 -75 0
-72 75 74 73 0
-73 77 0
-73 217 0
73 -217 -77 0
-74 76 0
-74 77 0
74 -77 -76 0
-75 76 0
-75 217 0
75 -217 -76 0
77 -78 0
77 -79 0
77 -80 0
-77 80 79 78 0
-78 82 0
-78 219 0
78 -219 -82 0
-79 81 0
-79 82 0
79 -82 -81 0
-80 81 0
-80 219 0
80 -219 -81 0
82 -83 0
82 -84 0
82 -85 0
-82 85 84 83 0
-83 87 0
-83 221 0
83 -221 -87 0
-84 86 0
-84 87 0
84 -87 -86 0
-85 86 0
-85 221 0
85 -221 -86 0
87 -88 0
87 -89 0
87 -90 0
-87 90 89 88 0
-88 92 0
-88 223 0
88 -223 -92 0
-89 91 0
-89 92 0
89 -92 -91 0
-90 91 0
-90 223 0
90 -223 -91 0
92 -93 0
92 -94 0
92 -95 0
-92 95 94 93 0
-93 97 0
-93 225 0
93 -225 -97 0
-94 96 0
-94 97 0
94 -97 -96 0
-95 96 0
-95 225 0
95 -225 -96 0
97 -98 0
97 -99 0
97 -100 0
-97 100 99 98 0
-98 102 0
-98 227 0
98 -227 -102 0
-99 101 0
-99 102 0
99 -102 -101 0
-100 101 0
-100 227 0
100 -227 -101 0
102 -103 0
102 -104 0
102 -105 0
-102 105 104 103 0
-103 107 0
-103 229 0
103 -229 -107 0
-104 106 0
-104 107 0
104 -107 -106 0
-105 106 0
-105 229 0
105 -229 -106 0
107 -108 0
107 -109 0
107 -110 0
-107 110 109 108 0
-108 112 0
-108 231 0
108 -231 -112 0
-109 111 0
-109 112 0
109 -112 -111 0
-110 111 0
-110 231 0
110 -231 -111 0
112 -113 0
112 -114 0
112 -115 0
-112 115 114 113 0
-113 117 0
-113 233 0
113 -233 -117 0
-114 116 0
-114 117 0
114 -117 -116 0
-115 116 0
-115 233 0
115 -233 -116 0
117 -118 0
117 -119 0
117 -120 0
-117 120 119 118 0
-118 122 0
-118 235 0
118 -235 -122 0
-119 121 0
-119 122 0
119 -122 -121 0
-120 121 0
-120 235 0
120 -235 -121 0
122 -123 0
122 -124 0
122 -125 0
-122 125 124 123 0
-123 127 0
-123 237 0
123 -237 -127 0
-124 126 0
-124 127 0
124 -127 -126 0
-125 126 0
-125 237 0
125 -237 -126 0
127 -128 0
127 -129 0
127 -130 0
-127 130 129 128 0
-128 132 0
-128 239 0
128 -239 -132 0
-129 131 0
-129 132 0
129 -132 -131 0
-130 131 0
-130 239 0
130 -239 -131 0
132 -133 0
132 -134 0
132 -135 0
-132 135 134 133 0
-133 137 0
-133 241 0
133 -241 -137 0
-134 136 0
-134 137 0
134 -137 -136 0
-135 136 0
-135 241 0
135 -241 -136 0
137 -138 0
137 -139 0
137 -140 0
-137 140 139 138 0
-138 142 0
-138 243 0
138 -243 -142 0
-139 141 0
-139 142 0
139 -142 -141 0
-140 141 0
-140 243 0
140 -243 -141 0
142 -143 0
142 -144 0
142 -145 0
-142 145 144 143 0
-143 147 0
-143 245 0
143 -245 -147 0
-144 146 0
-144 147 0
144 -147 -146 0
-145 146 0
-145 245 0
145 -245 -146 0
147 -148 0
147 -149 0
147 -150 0
-147 150 149 148 0
-148 152 0
-148 247 0
148 -247 -152 0
-149 151 0
-149 152 0
149 -152 -151 0
-150 151 0
-150 247 0
150 -247 -151 0
152 -153 0
152 -154 0
152 -155 0
-152 155 154 153 0
-153 157 0
-153 249 0
153 -249 -157 0
-154 156 0
-154 157 0
154 -157 -156 0
-155 156 0
-155 249 0
155 -249 -156 0
157 -158 0
157 -159 0
157 -160 0
-157 160 159 158 0
-158 162 0
-158 251 0
158 -251 -162 0
-159 161 0
-159 162 0
159 -162 -161 0
-160 161 0
-160 251 0
160 -251 -161 0
162 -163 0
162 -164 0
162 -165 0
-162 165 164 163 0
-163 167 0
-163 253 0
163 -253 -167 0
-164 166 0
-164 167 0
164 -167 -166 0
-165 166 0
-165 253 0
165 -253 -166 0
167 -168 0
167 -169 0
167 -170 0
-167 170 169 168 0
-168 172 0
-168 255 0
168 -255 -172 0
-169 171 0
-169 172 0
169 -172 -171 0
-170 171 0
-170 255 0
170 -255 -171 0
172 -173 0
172 -174 0
172 -175 0
-172 175 174 173 0
-173 177 0
-173 257 0
173 -257 -177 0
-174 176 0
-174 177 0
174 -177 -176 0
-175 176 0
-175 257 0
175 -257 -176 0
177 -178 0
177 -179 0
177 -180 0
-177 180 179 178 0
-178 182 0
-178 259 0
178 -259 -182 0
-179 181 0
-179 182 0
179 -182 -181 0
-180 181 0
-180 259 0
180 -259 -181 0
182 -183 0
182 -184 0
182 -185 0
-182 185 184 183 0
-183 187 0
-183 261 0
183 -261 -187 0
-184 186 0
-184 187 0
184 -187 -186 0
-185 186 0
-185 261 0
185 -261 -186 0
187 -188 0
187 -189 0
187 -190 0
-187 190 189 188 0
-188 192 0
-188 263 0
188 -263 -192 0
-189 191 0
-189 192 0
189 -192 -191 0
-190 191 0
-190 263 0
190 -263 -191 0
192 -193 0
192 -194 0
192 -195 0
-192 195 194 193 0
-193 197 0
-193 265 0
193 -265 -197 0
-194 196 0
-194 197 0
194 -197 -196 0
-195 196 0
-195 265 0
195 -265 -196 0
197 -198 0
197 -199 0
197 -200 0
-197 200 199 198 0
-198 202 0
-198 267 0
198 -267 -202 0
-199 201 0
-199 202 0
199 -202 -201 0
-200 201 0
-200 267 0
200 -267 -201 0
202 -203 0
202 -204 0
202 -205 0
-202 205 204 203 0
-203 269 0
-203 270 0
203 -270 -269 0
-204 206 0
-204 270 0
204 -270 -206 0
-205 206 0
-205 269 0
205 -269 -206 0
207 270 -208 0
207 -270 208 0
-207 270 208 0
-207 -270 -208 0
209 270 -210 0
209 -270 210 0
-209 270 210 0
-209 -270 -210 0
211 270 -212 0
211 -270 212 0
-211 270 212 0
-211 -270 -212 0
213 270 -214 0
213 -270 214 0
-213 270 214 0
-213 -270 -214 0
215 270 -216 0
215 -270 216 0
-215 270 216 0
-215 -270 -216 0
217 270 -218 0
217 -270 218 0
-217 270 218 0
-217 -270 -218 0
219 270 -220 0
219 -270 220 0
-219 270 220 0
-219 -270 -220 0
221 270 -222 0
221 -270 222 0
-221 270 222 0
-221 -270 -222 0
223 270 -224 0
223 -270 224 0
-223 270 224 0
-223 -270 -224 0
225 270 -226 0
225 -270 226 0
-225 270 226 0
-225 -270 -226 0
227 270 -228 0
227 -270 228 0
-227 270 228 0
-227 -270 -228 0
229 270 -230 0
229 -270 230 0
-229 270 230 0
-229 -270 -230 0
231 270 -232 0
231 -270 232 0
-231 270 232 0
-231 -270 -232 0
233 270 -234 0
233 -270 234 0
-233 270 234 0
-233 -270 -234 0
235 270 -236 0
235 -270 236 0
-235 270 236 0
-235 -270 -236 0
237 270 -238 0
237 -270 238 0
-237 270 238 0
-237 -270 -238 0
239 270 -240 0
239 -270 240 0
-239 270 240 0
-239 -270 -240 0
241 270 -242 0
241 -270 242 0
-241 270 242 0
-241 -270 -242 0
243 270 -244 0
243 -270 244 0
-243 270 244 0
-243 -270 -244 0
245 270 -246 0
245 -270 246 0
-245 270 246 0
-245 -270 -246 0
247 270 -248 0
247 -270 248 0
-247 270 248 0
-247 -270 -248 0
249 270 -250 0
249 -270 250 0
-249 270 250 0
-249 -270 -250 0
251 270 -252 0
251 -270 252 0
-251 270 252 0
-251 -270 -252 0
253 270 -254 0
253 -270 254 0
-253 270 254 0
-253 -270 -254 0
255 270 -256 0
255 -270 256 0
-255 270 256 0
-255 -270 -256 0
257 270 -258 0
257 -270 258 0
-257 270 258 0
-257 -270 -258 0
259 270 -260 0
259 -270 260 0
-259 270 260 0
-259 -270 -260 0
261 270 -262 0
261 -270 262 0
-261 270 262 0
-261 -270 -262 0
263 270 -264 0
263 -270 264 0
-263 270 264 0
-263 -270 -264 0
265 270 -266 0
265 -270 266 0
-265 270 266 0
-265 -270 -266 0
267 270 -268 0
267 -270 268 0
-267 270 268 0
-267 -270 -268 0
269 271 -270 0
269 -271 270 0
-269 271 270 0
-269 -271 -270 0
